c Generated from
c unsat_tiling_10_113_22468.cnf
c
p cnf 10 31
1 0
10 0
2 0
5 0
9 0
3 0
6 0
4 0
7 0
8 0
-3 -10 0
-1 -5 0
-3 -1 0
-6 -5 0
-5 -8 0
-4 -9 0
-8 -7 0
-1 -3 0
-3 -2 0
-3 -4 0
-5 -2 0
-2 0
-10 0
-9 0
-7 0
-3 0
-5 0
-6 0
-8 0
-1 0
-4 0
